c nIsolatedPIs 0
c maxPI 32
p cnf 231 598
c gate 33 -2 18 0
-2 -33 0
18 -33 0
2 -18 33 0
c gate 34 -1 17 0
-1 -34 0
17 -34 0
1 -17 34 0
c gate 35 -33 -34 0
-33 -35 0
-34 -35 0
33 34 35 0
c gate 36 2 -18 0
2 -36 0
-18 -36 0
-2 18 36 0
c gate 37 3 -19 0
3 -37 0
-19 -37 0
-3 19 37 0
c gate 38 -36 -37 0
-36 -38 0
-37 -38 0
36 37 38 0
c gate 39 -35 38 0
-35 -39 0
38 -39 0
35 -38 39 0
c gate 40 -3 19 0
-3 -40 0
19 -40 0
3 -19 40 0
c gate 41 -4 20 0
-4 -41 0
20 -41 0
4 -20 41 0
c gate 42 -40 -41 0
-40 -42 0
-41 -42 0
40 41 42 0
c gate 43 -39 42 0
-39 -43 0
42 -43 0
39 -42 43 0
c gate 44 4 -20 0
4 -44 0
-20 -44 0
-4 20 44 0
c gate 45 5 -21 0
5 -45 0
-21 -45 0
-5 21 45 0
c gate 46 -44 -45 0
-44 -46 0
-45 -46 0
44 45 46 0
c gate 47 -43 46 0
-43 -47 0
46 -47 0
43 -46 47 0
c gate 48 -5 21 0
-5 -48 0
21 -48 0
5 -21 48 0
c gate 49 -6 -22 0
-6 -49 0
-22 -49 0
6 22 49 0
c gate 50 6 22 0
6 -50 0
22 -50 0
-6 -22 50 0
c gate 51 -49 -50 0
-49 -51 0
-50 -51 0
49 50 51 0
c gate 52 -48 -51 0
-48 -52 0
-51 -52 0
48 51 52 0
c gate 53 -47 52 0
-47 -53 0
52 -53 0
47 -52 53 0
c gate 54 -14 -30 0
-14 -54 0
-30 -54 0
14 30 54 0
c gate 55 14 30 0
14 -55 0
30 -55 0
-14 -30 55 0
c gate 56 -54 -55 0
-54 -56 0
-55 -56 0
54 55 56 0
c gate 57 13 29 0
13 -57 0
29 -57 0
-13 -29 57 0
c gate 58 12 28 0
12 -58 0
28 -58 0
-12 -28 58 0
c gate 59 -57 -58 0
-57 -59 0
-58 -59 0
57 58 59 0
c gate 60 56 59 0
56 -60 0
59 -60 0
-56 -59 60 0
c gate 61 -56 -59 0
-56 -61 0
-59 -61 0
56 59 61 0
c gate 62 -60 -61 0
-60 -62 0
-61 -62 0
60 61 62 0
c gate 63 -13 -29 0
-13 -63 0
-29 -63 0
13 29 63 0
c gate 64 11 27 0
11 -64 0
27 -64 0
-11 -27 64 0
c gate 65 -10 -26 0
-10 -65 0
-26 -65 0
10 26 65 0
c gate 66 10 26 0
10 -66 0
26 -66 0
-10 -26 66 0
c gate 67 9 25 0
9 -67 0
25 -67 0
-9 -25 67 0
c gate 68 -66 -67 0
-66 -68 0
-67 -68 0
66 67 68 0
c gate 69 -8 -24 0
-8 -69 0
-24 -69 0
8 24 69 0
c gate 70 8 24 0
8 -70 0
24 -70 0
-8 -24 70 0
c gate 71 -69 -70 0
-69 -71 0
-70 -71 0
69 70 71 0
c gate 72 -7 23 0
-7 -72 0
23 -72 0
7 -23 72 0
c gate 73 7 -23 0
7 -73 0
-23 -73 0
-7 23 73 0
c gate 74 -72 -73 0
-72 -74 0
-73 -74 0
72 73 74 0
c gate 75 -2 -18 0
-2 -75 0
-18 -75 0
2 18 75 0
c gate 76 3 19 0
3 -76 0
19 -76 0
-3 -19 76 0
c gate 77 75 -76 0
75 -77 0
-76 -77 0
-75 76 77 0
c gate 78 1 17 0
1 -78 0
17 -78 0
-1 -17 78 0
c gate 79 2 18 0
2 -79 0
18 -79 0
-2 -18 79 0
c gate 80 -78 -79 0
-78 -80 0
-79 -80 0
78 79 80 0
c gate 81 -3 -19 0
-3 -81 0
-19 -81 0
3 19 81 0
c gate 82 -80 -81 0
-80 -82 0
-81 -82 0
80 81 82 0
c gate 83 -76 -82 0
-76 -83 0
-82 -83 0
76 82 83 0
c gate 84 -77 -83 0
-77 -84 0
-83 -84 0
77 83 84 0
c gate 85 4 84 0
4 -85 0
84 -85 0
-4 -84 85 0
c gate 86 -20 -85 0
-20 -86 0
-85 -86 0
20 85 86 0
c gate 87 -5 -21 0
-5 -87 0
-21 -87 0
5 21 87 0
c gate 88 -4 -84 0
-4 -88 0
-84 -88 0
4 84 88 0
c gate 89 -87 -88 0
-87 -89 0
-88 -89 0
87 88 89 0
c gate 90 -86 89 0
-86 -90 0
89 -90 0
86 -89 90 0
c gate 91 5 21 0
5 -91 0
21 -91 0
-5 -21 91 0
c gate 92 51 -91 0
51 -92 0
-91 -92 0
-51 91 92 0
c gate 93 -90 92 0
-90 -93 0
92 -93 0
90 -92 93 0
c gate 94 -49 -93 0
-49 -94 0
-93 -94 0
49 93 94 0
c gate 95 -74 -94 0
-74 -95 0
-94 -95 0
74 94 95 0
c gate 96 71 95 0
71 -96 0
95 -96 0
-71 -95 96 0
c gate 97 -7 -23 0
-7 -97 0
-23 -97 0
7 23 97 0
c gate 98 -70 97 0
-70 -98 0
97 -98 0
70 -97 98 0
c gate 99 -9 -25 0
-9 -99 0
-25 -99 0
9 25 99 0
c gate 100 -69 -99 0
-69 -100 0
-99 -100 0
69 99 100 0
c gate 101 -98 100 0
-98 -101 0
100 -101 0
98 -100 101 0
c gate 102 -96 101 0
-96 -102 0
101 -102 0
96 -101 102 0
c gate 103 68 -102 0
68 -103 0
-102 -103 0
-68 102 103 0
c gate 104 -65 -103 0
-65 -104 0
-103 -104 0
65 103 104 0
c gate 105 -64 -104 0
-64 -105 0
-104 -105 0
64 104 105 0
c gate 106 -11 -27 0
-11 -106 0
-27 -106 0
11 27 106 0
c gate 107 -12 -28 0
-12 -107 0
-28 -107 0
12 28 107 0
c gate 108 -58 -107 0
-58 -108 0
-107 -108 0
58 107 108 0
c gate 109 -106 108 0
-106 -109 0
108 -109 0
106 -108 109 0
c gate 110 -105 109 0
-105 -110 0
109 -110 0
105 -109 110 0
c gate 111 59 -110 0
59 -111 0
-110 -111 0
-59 110 111 0
c gate 112 -63 -111 0
-63 -112 0
-111 -112 0
63 111 112 0
c gate 113 56 -112 0
56 -113 0
-112 -113 0
-56 112 113 0
c gate 114 -56 112 0
-56 -114 0
112 -114 0
56 -112 114 0
c gate 115 -113 -114 0
-113 -115 0
-114 -115 0
113 114 115 0
c gate 116 -62 115 0
-62 -116 0
115 -116 0
62 -115 116 0
c gate 117 62 -115 0
62 -117 0
-115 -117 0
-62 115 117 0
c gate 118 -116 -117 0
-116 -118 0
-117 -118 0
116 117 118 0
c gate 119 68 -101 0
68 -119 0
-101 -119 0
-68 101 119 0
c gate 120 -65 109 0
-65 -120 0
109 -120 0
65 -109 120 0
c gate 121 -119 120 0
-119 -121 0
120 -121 0
119 -120 121 0
c gate 122 105 121 0
105 -122 0
121 -122 0
-105 -121 122 0
c gate 123 118 122 0
118 -123 0
122 -123 0
-118 -122 123 0
c gate 124 16 32 0
16 -124 0
32 -124 0
-16 -32 124 0
c gate 125 -16 -32 0
-16 -125 0
-32 -125 0
16 32 125 0
c gate 126 -124 -125 0
-124 -126 0
-125 -126 0
124 125 126 0
c gate 127 -15 -31 0
-15 -127 0
-31 -127 0
15 31 127 0
c gate 128 15 31 0
15 -128 0
31 -128 0
-15 -31 128 0
c gate 129 -127 -128 0
-127 -129 0
-128 -129 0
127 128 129 0
c gate 130 -54 -113 0
-54 -130 0
-113 -130 0
54 113 130 0
c gate 131 129 -130 0
129 -131 0
-130 -131 0
-129 130 131 0
c gate 132 -127 -131 0
-127 -132 0
-131 -132 0
127 131 132 0
c gate 133 126 -132 0
126 -133 0
-132 -133 0
-126 132 133 0
c gate 134 -126 132 0
-126 -134 0
132 -134 0
126 -132 134 0
c gate 135 -133 -134 0
-133 -135 0
-134 -135 0
133 134 135 0
c gate 136 -54 -60 0
-54 -136 0
-60 -136 0
54 60 136 0
c gate 137 129 136 0
129 -137 0
136 -137 0
-129 -136 137 0
c gate 138 -128 -137 0
-128 -138 0
-137 -138 0
128 137 138 0
c gate 139 126 138 0
126 -139 0
138 -139 0
-126 -138 139 0
c gate 140 -126 -138 0
-126 -140 0
-138 -140 0
126 138 140 0
c gate 141 -139 -140 0
-139 -141 0
-140 -141 0
139 140 141 0
c gate 142 -135 141 0
-135 -142 0
141 -142 0
135 -141 142 0
c gate 143 135 -141 0
135 -143 0
-141 -143 0
-135 141 143 0
c gate 144 -129 -136 0
-129 -144 0
-136 -144 0
129 136 144 0
c gate 145 -137 -144 0
-137 -145 0
-144 -145 0
137 144 145 0
c gate 146 -129 130 0
-129 -146 0
130 -146 0
129 -130 146 0
c gate 147 -131 -146 0
-131 -147 0
-146 -147 0
131 146 147 0
c gate 148 -145 -147 0
-145 -148 0
-147 -148 0
145 147 148 0
c gate 149 145 147 0
145 -149 0
147 -149 0
-145 -147 149 0
c gate 150 -57 -63 0
-57 -150 0
-63 -150 0
57 63 150 0
c gate 151 110 -150 0
110 -151 0
-150 -151 0
-110 150 151 0
c gate 152 -117 -151 0
-117 -152 0
-151 -152 0
117 151 152 0
c gate 153 -149 -152 0
-149 -153 0
-152 -153 0
149 152 153 0
c gate 154 -148 -153 0
-148 -154 0
-153 -154 0
148 153 154 0
c gate 155 -143 -154 0
-143 -155 0
-154 -155 0
143 154 155 0
c gate 156 -142 -155 0
-142 -156 0
-155 -156 0
142 155 156 0
c gate 157 -123 156 0
-123 -157 0
156 -157 0
123 -156 157 0
c gate 158 -96 -110 0
-96 -158 0
-110 -158 0
96 110 158 0
c gate 159 118 158 0
118 -159 0
158 -159 0
-118 -158 159 0
c gate 160 -157 -159 0
-157 -160 0
-159 -160 0
157 159 160 0
c gate 161 10 -26 0
10 -161 0
-26 -161 0
-10 26 161 0
c gate 162 9 -25 0
9 -162 0
-25 -162 0
-9 25 162 0
c gate 163 -9 25 0
-9 -163 0
25 -163 0
9 -25 163 0
c gate 164 8 -24 0
8 -164 0
-24 -164 0
-8 24 164 0
c gate 165 6 -22 0
6 -165 0
-22 -165 0
-6 22 165 0
c gate 166 74 -165 0
74 -166 0
-165 -166 0
-74 165 166 0
c gate 167 -53 166 0
-53 -167 0
166 -167 0
53 -166 167 0
c gate 168 -72 -167 0
-72 -168 0
-167 -168 0
72 167 168 0
c gate 169 -71 168 0
-71 -169 0
168 -169 0
71 -168 169 0
c gate 170 -164 -169 0
-164 -170 0
-169 -170 0
164 169 170 0
c gate 171 -163 -170 0
-163 -171 0
-170 -171 0
163 170 171 0
c gate 172 -162 -171 0
-162 -172 0
-171 -172 0
162 171 172 0
c gate 173 -65 -66 0
-65 -173 0
-66 -173 0
65 66 173 0
c gate 174 -172 -173 0
-172 -174 0
-173 -174 0
172 173 174 0
c gate 175 -161 -174 0
-161 -175 0
-174 -175 0
161 174 175 0
c gate 176 -64 -106 0
-64 -176 0
-106 -176 0
64 106 176 0
c gate 177 175 -176 0
175 -177 0
-176 -177 0
-175 176 177 0
c gate 178 -56 -126 0
-56 -178 0
-126 -178 0
56 126 178 0
c gate 179 -129 -150 0
-129 -179 0
-150 -179 0
129 150 179 0
c gate 180 -108 179 0
-108 -180 0
179 -180 0
108 -179 180 0
c gate 181 178 180 0
178 -181 0
180 -181 0
-178 -180 181 0
c gate 182 177 181 0
177 -182 0
181 -182 0
-177 -181 182 0
c gate 183 -175 176 0
-175 -183 0
176 -183 0
175 -176 183 0
c gate 184 -177 -183 0
-177 -184 0
-183 -184 0
177 183 184 0
c gate 185 -162 -164 0
-162 -185 0
-164 -185 0
162 164 185 0
c gate 186 -173 -185 0
-173 -186 0
-185 -186 0
173 185 186 0
c gate 187 -161 -186 0
-161 -187 0
-186 -187 0
161 186 187 0
c gate 188 176 -187 0
176 -188 0
-187 -188 0
-176 187 188 0
c gate 189 -184 -188 0
-184 -189 0
-188 -189 0
184 188 189 0
c gate 190 173 185 0
173 -190 0
185 -190 0
-173 -185 190 0
c gate 191 -186 -190 0
-186 -191 0
-190 -191 0
186 190 191 0
c gate 192 172 173 0
172 -192 0
173 -192 0
-172 -173 192 0
c gate 193 -174 -192 0
-174 -193 0
-192 -193 0
174 192 193 0
c gate 194 191 -193 0
191 -194 0
-193 -194 0
-191 193 194 0
c gate 195 -191 193 0
-191 -195 0
193 -195 0
191 -193 195 0
c gate 196 132 139 0
132 -196 0
139 -196 0
-132 -139 196 0
c gate 197 -53 -196 0
-53 -197 0
-196 -197 0
53 196 197 0
c gate 198 160 197 0
160 -198 0
197 -198 0
-160 -197 198 0
c gate 199 53 -74 0
53 -199 0
-74 -199 0
-53 74 199 0
c gate 200 -53 -124 0
-53 -200 0
-124 -200 0
53 124 200 0
c gate 201 -139 200 0
-139 -201 0
200 -201 0
139 -200 201 0
c gate 202 133 201 0
133 -202 0
201 -202 0
-133 -201 202 0
c gate 203 -199 -202 0
-199 -203 0
-202 -203 0
199 202 203 0
c gate 204 -198 203 0
-198 -204 0
203 -204 0
198 -203 204 0
c gate 205 71 166 0
71 -205 0
166 -205 0
-71 -166 205 0
c gate 206 168 205 0
168 -206 0
205 -206 0
-168 -205 206 0
c gate 207 204 -206 0
204 -207 0
-206 -207 0
-204 206 207 0
c gate 208 -169 -207 0
-169 -208 0
-207 -208 0
169 207 208 0
c gate 209 -162 -163 0
-162 -209 0
-163 -209 0
162 163 209 0
c gate 210 169 -209 0
169 -210 0
-209 -210 0
-169 209 210 0
c gate 211 -208 -210 0
-208 -211 0
-210 -211 0
208 210 211 0
c gate 212 -195 211 0
-195 -212 0
211 -212 0
195 -211 212 0
c gate 213 -194 -212 0
-194 -213 0
-212 -213 0
194 212 213 0
c gate 214 -189 -213 0
-189 -214 0
-213 -214 0
189 213 214 0
c gate 215 175 188 0
175 -215 0
188 -215 0
-175 -188 215 0
c gate 216 -177 -215 0
-177 -216 0
-215 -216 0
177 215 216 0
c gate 217 -214 216 0
-214 -217 0
216 -217 0
214 -216 217 0
c gate 218 -182 -217 0
-182 -218 0
-217 -218 0
182 217 218 0
c gate 219 -160 218 0
-160 -219 0
218 -219 0
160 -218 219 0
c gate 220 75 78 0
75 -220 0
78 -220 0
-75 -78 220 0
c gate 221 -93 -220 0
-93 -221 0
-220 -221 0
93 220 221 0
c gate 222 -95 221 0
-95 -222 0
221 -222 0
95 -221 222 0
c gate 223 -122 -222 0
-122 -223 0
-222 -223 0
122 222 223 0
c gate 224 -110 -223 0
-110 -224 0
-223 -224 0
110 223 224 0
c gate 225 118 224 0
118 -225 0
224 -225 0
-118 -224 225 0
c gate 226 156 -225 0
156 -226 0
-225 -226 0
-156 225 226 0
c gate 227 -218 -226 0
-218 -227 0
-226 -227 0
218 226 227 0
c gate 228 -219 -227 0
-219 -228 0
-227 -228 0
219 227 228 0
c gate 229 -53 -228 0
-53 -229 0
-228 -229 0
53 228 229 0
c gate 230 53 -218 0
53 -230 0
-218 -230 0
-53 218 230 0
c gate 231 -229 -230 0
-229 -231 0
-230 -231 0
229 230 231 0
c PO
231 0
